Using license file /util/academic/gurobi/licenses/gurobi.lic
Set parameter TokenServer to value srv-m14-36.cbls.ccr.buffalo.edu
Set parameter TSPort to value 46325
Changed value of parameter lazyConstraints to 1
   Prev: 0  Min: 0  Max: 1  Default: 0
Changed value of parameter TimeLimit to 43200.0
   Prev: inf  Min: 0.0  Max: inf  Default: inf
Gurobi Optimizer version 9.1.1 build v9.1.1rc0 (linux64)
Thread count: 12 physical cores, 12 logical processors, using up to 12 threads
Optimize a model with 8670 rows, 15189 columns and 53415 nonzeros
Model fingerprint: 0x5268cf0f
Variable types: 2733 continuous, 12456 integer (12456 binary)
Coefficient statistics:
  Matrix range     [4e-01, 1e+04]
  Objective range  [1e+00, 1e+00]
  Bounds range     [1e+00, 6e+03]
  RHS range        [1e+00, 1e+04]
Presolve removed 3922 rows and 1706 columns
Presolve time: 0.13s
Presolved: 4748 rows, 13483 columns, 43027 nonzeros
Variable types: 1691 continuous, 11792 integer (11792 binary)
Found heuristic solution: objective -176845.3666

Root relaxation: objective -2.863957e+05, 2582 iterations, 0.07 seconds

    Nodes    |    Current Node    |     Objective Bounds      |     Work
 Expl Unexpl |  Obj  Depth IntInf | Incumbent    BestBd   Gap | It/Node Time

     0     0 -286395.69    0  128 -176845.37 -286395.69  61.9%     -    0s
H    0     0                    -193899.2259 -286395.69  47.7%     -    0s
     0     0 -286261.01    0  268 -193899.23 -286261.01  47.6%     -    0s
     0     0 -286061.16    0  274 -193899.23 -286061.16  47.5%     -    0s
H    0     0                    -282617.3540 -286061.16  1.22%     -    0s
     0     0 -286050.40    0  204 -282617.35 -286050.40  1.21%     -    0s
H    0     0                    -284906.0540 -286050.40  0.40%     -    0s
     0     0 -286050.40    0  204 -284906.05 -286050.40  0.40%     -    1s
     0     0 -286040.56    0  132 -284906.05 -286040.56  0.40%     -    1s
     0     0 -286040.56    0  331 -284906.05 -286040.56  0.40%     -    1s
     0     0 -286007.36    0  300 -284906.05 -286007.36  0.39%     -    1s
     0     0 -285993.86    0  336 -284906.05 -285993.86  0.38%     -    2s
     0     0 -285993.51    0  365 -284906.05 -285993.51  0.38%     -    2s
     0     0 -285977.04    0  327 -284906.05 -285977.04  0.38%     -    2s
     0     0 -285977.04    0  327 -284906.05 -285977.04  0.38%     -    2s
     0     0 -285975.88    0  312 -284906.05 -285975.88  0.38%     -    2s
     0     0 -285975.88    0  180 -284906.05 -285975.88  0.38%     -    2s
     0     0 -285969.77    0  322 -284906.05 -285969.77  0.37%     -    2s
H    0     0                    -285237.6048 -285969.77  0.26%     -    2s
     0     0 -285969.34    0  351 -285237.60 -285969.34  0.26%     -    2s
     0     0 -285969.34    0  351 -285237.60 -285969.34  0.26%     -    2s
     0     0 -285968.98    0  190 -285237.60 -285968.98  0.26%     -    3s
     0     0 -285968.98    0  132 -285237.60 -285968.98  0.26%     -    3s
     0     0 -285968.98    0  333 -285237.60 -285968.98  0.26%     -    3s
     0     0 -285968.98    0  352 -285237.60 -285968.98  0.26%     -    3s
     0     0 -285968.98    0  330 -285237.60 -285968.98  0.26%     -    3s
     0     0 -285968.98    0  327 -285237.60 -285968.98  0.26%     -    3s
     0     0 -285968.98    0  318 -285237.60 -285968.98  0.26%     -    3s
     0     0 -285968.98    0  334 -285237.60 -285968.98  0.26%     -    3s
     0     0 -285968.98    0  360 -285237.60 -285968.98  0.26%     -    3s
     0     0 -285968.98    0  364 -285237.60 -285968.98  0.26%     -    3s
     0     0 -285968.98    0  368 -285237.60 -285968.98  0.26%     -    3s
     0     0 -285968.98    0  369 -285237.60 -285968.98  0.26%     -    4s
     0     0 -285968.82    0  360 -285237.60 -285968.82  0.26%     -    4s
     0     0 -285968.82    0  362 -285237.60 -285968.82  0.26%     -    4s
     0     0 -285968.82    0  361 -285237.60 -285968.82  0.26%     -    4s
     0     0 -285968.82    0  361 -285237.60 -285968.82  0.26%     -    4s
     0     0 -285968.82    0  360 -285237.60 -285968.82  0.26%     -    4s
     0     0 -285968.70    0  271 -285237.60 -285968.70  0.26%     -    4s
     0     0 -285968.70    0  271 -285237.60 -285968.70  0.26%     -    4s
H    0     0                    -285245.6640 -285968.70  0.25%     -    4s
     0     2 -285958.14    0  271 -285245.66 -285958.14  0.25%     -    4s
     1     4 -285358.35    1  193 -285245.66 -285958.14  0.25%   609    5s
*   24    11               7    -285252.6940 -285841.66  0.21%   110    5s

Cutting planes:
  Gomory: 2
  Cover: 64
  Implied bound: 2
  MIR: 12
  Flow cover: 6
  Zero half: 2
  RLT: 57

Explored 198 nodes (28493 simplex iterations) in 5.70 seconds
Thread count was 12 (of 12 available processors)

Solution count 7: -285253 -285246 -285238 ... -176845
No other solutions better than -285253

Optimal solution found (tolerance 1.00e-04)
Best objective -2.852526939543e+05, best bound -2.852526939543e+05, gap 0.0000%

User-callback calls 1362, time in user-callback 0.07 sec
-1
Leader's objective: 285253
Customers decisions:
Customer 1 - Obj: 151.376   part1: 151.376   part2: 8.21626e-12
1, 9: 0 772.666 621.29
0, 9: 0 -
63, 9: 0 772.666 480.555 621.29
64, 9: 0 772.666 502.629 621.29
65, 9: 0 772.666 603.5 621.29
66, 9: 0 772.666 681.254 621.29
67, 9: 1 772.666 0 621.29
68, 9: 0 772.666 902.378 621.29
69, 9: 0 772.666 714.159 621.29
70, 9: 0 772.666 499.941 621.29
Customer 2 - Obj: 151.376   part1: 151.376   part2: 3.51855e-13
2, 6: 0 2331.17 2179.8
0, 6: 0 -
63, 6: 0 2331.17 792.308 2179.8
64, 6: 0 2331.17 829.487 2179.8
65, 6: 0 2331.17 999.337 2179.8
66, 6: 0 2331.17 1130.28 2179.8
67, 6: 1 2331.17 0 2179.8
68, 6: 0 2331.17 1520.19 2179.8
69, 6: 0 2331.17 1185.68 2179.8
70, 6: 0 2331.17 824.962 2179.8
Customer 3 - Obj: 151.376   part1: 151.376   part2: -4.73223e-13
3, 6: 0 2331.17 2179.8
0, 6: 0 -
63, 6: 0 2331.17 532.802 2179.8
64, 6: 0 2331.17 613.781 2179.8
65, 6: 0 2331.17 983.722 2179.8
66, 6: 0 2331.17 1268.89 2179.8
67, 6: 1 2331.17 0 2179.8
68, 6: 0 2331.17 2317.83 2179.8
69, 6: 0 2331.17 1890.96 2179.8
70, 6: 0 2331.17 1078.54 2179.8
Customer 4 - Obj: 6.97631   part1: 151.376   part2: 144.4
4, 8: 0 8678.31 8526.93
0, 8: 0 -
63, 8: 0 8678.31 251.617 9379.62
64, 8: 0 8678.31 148.875 8378.05
65, 8: 1 8678.31 144.4 8526.93
66, 8: 0 8678.31 304.781 8222.15
67, 8: 0 8678.31 0 8526.93
68, 8: 0 8678.31 700.46 7826.47
69, 8: 0 8678.31 610.344 7916.59
70, 8: 0 8678.31 571.859 7955.07
Customer 5 - Obj: 151.376   part1: 151.376   part2: 5.92316e-11
5, 5: 0 6816.69 6665.31
0, 5: 0 -
63, 5: 0 6816.69 39.3213 7331.84
64, 5: 0 6816.69 22.0415 6643.27
65, 5: 0 6816.69 25.1726 6640.14
66, 5: 0 6816.69 59.7663 6605.55
67, 5: 1 6816.69 0 6665.31
68, 5: 0 6816.69 178.475 6486.84
69, 5: 0 6816.69 124.471 6540.84
70, 5: 0 6816.69 101.437 6563.88
Customer 6 - Obj: 151.376   part1: 151.376   part2: 3.03257e-11
6, 7: 0 4659.51 4508.14
0, 7: 0 -
63, 7: 0 4659.51 161.055 4958.95
64, 7: 0 4659.51 109.852 4398.28
65, 7: 0 4659.51 7.2136 4500.92
66, 7: 0 4659.51 106.129 4402.01
67, 7: 1 4659.51 0 4508.14
68, 7: 0 4659.51 445.559 4062.58
69, 7: 0 4659.51 299.468 4208.67
70, 7: 0 4659.51 338.667 4169.47
Customer 7 - Obj: -70.8777   part1: 151.376   part2: 222.254
7, 8: 0 8678.31 8526.93
0, 8: 0 -
63, 8: 0 8678.31 125.866 9379.62
64, 8: 0 8678.31 91.4152 8435.51
65, 8: 0 8678.31 178.725 8348.2
66, 8: 0 8678.31 270.891 8256.04
67, 8: 1 8678.31 0 8526.93
68, 8: 0 8678.31 584.932 7942
69, 8: 0 8678.31 337.563 8189.37
70, 8: 0 8678.31 182.393 8344.54
Customer 8 - Obj: 151.376   part1: 151.376   part2: 3.02485e-11
8, 2: 0 3291.48 3140.11
0, 2: 0 -
63, 2: 0 3291.48 133.034 3007.07
64, 2: 0 3291.48 101.656 3038.45
65, 2: 0 3291.48 130.739 3009.37
66, 2: 0 3291.48 214.953 2925.15
67, 2: 1 3291.48 0 3140.11
68, 2: 0 3291.48 495.983 3140.11
69, 2: 0 3291.48 279.041 2861.07
70, 2: 0 3291.48 162.076 2978.03
Customer 9 - Obj: 151.376   part1: 151.376   part2: 5.93748e-11
9, 0: 0 6331.72 6180.34
0, 0: 0 -
63, 0: 0 6331.72 65.2833 6115.06
64, 0: 0 6331.72 49.3934 6130.95
65, 0: 0 6331.72 89.6678 6090.67
66, 0: 0 6331.72 132.188 6048.15
67, 0: 1 6331.72 0 6180.34
68, 0: 0 6331.72 277.06 5903.28
69, 0: 0 6331.72 150.468 6029.87
70, 0: 0 6331.72 68.7121 6111.63
Customer 10 - Obj: 151.376   part1: 151.376   part2: 8.4915e-12
10, 3: 0 1132.6 981.225
0, 3: 0 -
63, 3: 0 1132.6 222.339 981.225
64, 3: 0 1132.6 154.477 1079.35
65, 3: 0 1132.6 8.0592 973.166
66, 3: 0 1132.6 130.812 850.413
67, 3: 1 1132.6 0 981.225
68, 3: 0 1132.6 563.056 981.225
69, 3: 0 1132.6 377.01 981.225
70, 3: 0 1132.6 448.509 981.225
Customer 11 - Obj: 151.376   part1: 151.376   part2: 3.02967e-11
11, 2: 0 3291.48 3140.11
0, 2: 0 -
63, 2: 0 3291.48 294.06 3454.12
64, 2: 0 3291.48 218.798 2921.31
65, 2: 0 3291.48 56.4125 3083.69
66, 2: 0 3291.48 188.898 2951.21
67, 2: 1 3291.48 0 3140.11
68, 2: 0 3291.48 668.279 3140.11
69, 2: 0 3291.48 361.885 3140.11
70, 2: 0 3291.48 460.738 3140.11
Customer 12 - Obj: -23.4643   part1: 151.376   part2: 174.84
12, 8: 0 8678.31 8526.93
0, 8: 0 -
63, 8: 0 8678.31 767.861 9379.62
64, 8: 0 8678.31 636.893 7890.04
65, 8: 1 8678.31 174.84 8526.93
66, 8: 0 8678.31 531.678 7995.25
67, 8: 0 8678.31 0 8526.93
68, 8: 0 8678.31 1704.66 6822.27
69, 8: 0 8678.31 903.629 7623.3
70, 8: 0 8678.31 1091.66 7435.27
Customer 13 - Obj: 151.376   part1: 151.376   part2: 1.28882e-13
13, 9: 0 772.666 621.29
0, 9: 0 -
63, 9: 0 772.666 2321.74 621.29
64, 9: 0 772.666 2115.17 621.29
65, 9: 0 772.666 1719.23 621.29
66, 9: 0 772.666 1391.48 621.29
67, 9: 1 772.666 0 621.29
68, 9: 0 772.666 128.726 503.527
69, 9: 0 772.666 1280.5 621.29
70, 9: 0 772.666 2378.71 621.29
Customer 14 - Obj: 151.376   part1: 151.376   part2: 5.93756e-11
14, 0: 0 6331.72 6180.34
0, 0: 0 -
63, 0: 0 6331.72 1012.89 5167.45
64, 0: 0 6331.72 896.315 5284.03
65, 0: 0 6331.72 712.49 6798.38
66, 0: 0 6331.72 560.305 5620.04
67, 0: 1 6331.72 0 6180.34
68, 0: 0 6331.72 67.3862 6112.96
69, 0: 0 6331.72 497.312 5683.03
70, 0: 0 6331.72 1007.21 5173.13
Customer 15 - Obj: 151.376   part1: 151.376   part2: 3.03538e-11
15, 4: 0 3370.61 3219.23
0, 4: 0 -
63, 4: 0 3370.61 1220.55 3219.23
64, 4: 0 3370.61 1123.16 3219.23
65, 4: 0 3370.61 969.578 2249.65
66, 4: 0 3370.61 842.447 2376.78
67, 4: 1 3370.61 0 3219.23
68, 4: 0 3370.61 319.412 2899.82
69, 4: 0 3370.61 630.168 2589.06
70, 4: 0 3370.61 1092.88 3219.23
Customer 16 - Obj: -2300.66   part1: 151.376   part2: 2452.03
16, 8: 0 8678.31 8526.93
0, 8: 0 -
63, 8: 0 8678.31 3064.27 9379.62
64, 8: 0 8678.31 2826.68 6389.57
65, 8: 1 8678.31 2452.03 8526.93
66, 8: 0 8678.31 2141.9 6389.57
67, 8: 0 8678.31 0 8526.93
68, 8: 0 8678.31 847.932 7679
69, 8: 0 8678.31 1624.04 6902.89
70, 8: 0 8678.31 2752.82 6389.57
Customer 17 - Obj: 151.376   part1: 151.376   part2: 0
17, 1: 0 8355.3 8203.92
0, 1: 0 -
63, 1: 0 8355.3 7064.92 8203.92
64, 1: 0 8355.3 6753.94 8203.92
65, 1: 0 8355.3 5840.13 8203.92
66, 1: 0 8355.3 5405.48 8203.92
67, 1: 1 8355.3 0 8203.92
68, 1: 0 8355.3 3186.14 5561.73
69, 1: 0 8355.3 3510.57 8203.92
70, 1: 0 8355.3 7013.99 8203.92
Customer 18 - Obj: 151.376   part1: 151.376   part2: 0
18, 7: 0 4659.51 4508.14
0, 7: 0 -
63, 7: 0 4659.51 3724.87 4508.14
64, 7: 0 4659.51 3564.78 4508.14
65, 7: 0 4659.51 3094.4 4508.14
66, 7: 0 4659.51 2870.66 4508.14
67, 7: 1 4659.51 0 4508.14
68, 7: 0 4659.51 1728.24 4508.14
69, 7: 0 4659.51 2333.89 4508.14
70, 7: 0 4659.51 3595.83 4508.14
Customer 19 - Obj: 151.376   part1: 151.376   part2: 0
19, 1: 0 8355.3 8203.92
0, 1: 0 -
63, 1: 0 8355.3 2042 6161.92
64, 1: 0 8355.3 2138.39 6065.53
65, 1: 0 8355.3 2578.71 5625.21
66, 1: 0 8355.3 2918.16 5561.73
67, 1: 1 8355.3 0 8203.92
68, 1: 0 8355.3 3611.13 8203.92
69, 1: 0 8355.3 2609.37 5594.55
70, 1: 0 8355.3 1306.24 6897.68
Customer 20 - Obj: 151.376   part1: 151.376   part2: 0
20, 4: 0 3370.61 3219.23
0, 4: 0 -
63, 4: 0 3370.61 3361.35 3219.23
64, 4: 0 3370.61 3528.66 3219.23
65, 4: 0 3370.61 4293.26 3219.23
66, 4: 0 3370.61 4882.62 3219.23
67, 4: 1 3370.61 0 3219.23
68, 4: 0 3370.61 6102.25 3219.23
69, 4: 0 3370.61 4362.85 3219.23
70, 4: 0 3370.61 2083.77 3219.23
Customer 21 - Obj: -82.3352   part1: 151.376   part2: 233.711
21, 8: 0 8678.31 8526.93
0, 8: 0 -
63, 8: 0 8678.31 56.6488 9379.62
64, 8: 0 8678.31 54.8867 8472.04
65, 8: 1 8678.31 64.126 8526.93
66, 8: 0 8678.31 73.8804 8453.05
67, 8: 0 8678.31 0 8526.93
68, 8: 0 8678.31 88.8635 8438.07
69, 8: 0 8678.31 63.0679 8463.86
70, 8: 0 8678.31 32.8273 8494.1
Customer 22 - Obj: 151.376   part1: 151.376   part2: 0
22, 3: 0 1132.6 981.225
0, 3: 0 -
63, 3: 0 1132.6 2380.92 981.225
64, 3: 0 1132.6 2197.81 981.225
65, 3: 0 1132.6 1923.81 981.225
66, 3: 0 1132.6 1912.29 981.225
67, 3: 1 1132.6 0 981.225
68, 3: 0 1132.6 2818.38 981.225
69, 3: 0 1132.6 1522.66 981.225
70, 3: 0 1132.6 974.586 981.225
Customer 23 - Obj: 151.376   part1: 151.376   part2: 8.37962e-12
23, 3: 0 1132.6 981.225
0, 3: 0 -
63, 3: 0 1132.6 314.487 981.225
64, 3: 0 1132.6 286.054 981.225
65, 3: 0 1132.6 358.12 981.225
66, 3: 0 1132.6 323.829 981.225
67, 3: 1 1132.6 0 981.225
68, 3: 0 1132.6 464.53 981.225
69, 3: 0 1132.6 263.324 981.225
70, 3: 0 1132.6 107.315 873.91
Customer 24 - Obj: 151.376   part1: 151.376   part2: 2.98165e-11
24, 2: 0 3291.48 3140.11
0, 2: 0 -
63, 2: 0 3291.48 907.308 3140.11
64, 2: 0 3291.48 850.588 3140.11
65, 2: 0 3291.48 597.433 3140.11
66, 2: 0 3291.48 457.802 3140.11
67, 2: 1 3291.48 0 3140.11
68, 2: 0 3291.48 780.384 3140.11
69, 2: 0 3291.48 308.591 2831.51
70, 2: 0 3291.48 412.048 3140.11
Customer 25 - Obj: 151.376   part1: 151.376   part2: -9.74513e-13
25, 7: 0 4659.51 4508.14
0, 7: 0 -
63, 7: 0 4659.51 2194.41 4508.14
64, 7: 0 4659.51 2054.47 4508.14
65, 7: 0 4659.51 1526.47 4508.14
66, 7: 0 4659.51 1321.34 4508.14
67, 7: 1 4659.51 0 4508.14
68, 7: 0 4659.51 2166.01 4508.14
69, 7: 0 4659.51 993.722 3514.41
70, 7: 0 4659.51 1069.09 3439.05
Customer 26 - Obj: 151.376   part1: 151.376   part2: 3.7387e-13
26, 2: 0 3291.48 3140.11
0, 2: 0 -
63, 2: 0 3291.48 1683.76 3140.11
64, 2: 0 3291.48 1572.82 3140.11
65, 2: 0 3291.48 1473.29 3140.11
66, 2: 0 3291.48 1279.64 3140.11
67, 2: 1 3291.48 0 3140.11
68, 2: 0 3291.48 1886.44 3140.11
69, 2: 0 3291.48 1019.92 3140.11
70, 2: 0 3291.48 875.426 3140.11
Customer 27 - Obj: 151.376   part1: 151.376   part2: 0
27, 9: 0 772.666 621.29
0, 9: 0 -
63, 9: 0 772.666 240.179 621.29
64, 9: 0 772.666 226.2 621.29
65, 9: 0 772.666 173.456 503.527
66, 9: 0 772.666 153.068 503.527
67, 9: 1 772.666 0 621.29
68, 9: 0 772.666 225.239 621.29
69, 9: 0 772.666 120.339 503.527
70, 9: 0 772.666 127.766 503.527
Customer 28 - Obj: 151.376   part1: 151.376   part2: 0
28, 4: 0 3370.61 3219.23
0, 4: 0 -
63, 4: 0 3370.61 1922.01 3219.23
64, 4: 0 3370.61 1827.58 3219.23
65, 4: 0 3370.61 1442.16 3219.23
66, 4: 0 3370.61 1197.86 3219.23
67, 4: 1 3370.61 0 3219.23
68, 4: 0 3370.61 1073.44 3219.23
69, 4: 0 3370.61 770.836 2448.39
70, 4: 0 3370.61 1162.69 3219.23
Customer 29 - Obj: 151.376   part1: 151.376   part2: 3.01438e-11
29, 4: 0 3370.61 3219.23
0, 4: 0 -
63, 4: 0 3370.61 132.574 3541.15
64, 4: 0 3370.61 126.27 3092.96
65, 4: 0 3370.61 100.542 3118.69
66, 4: 0 3370.61 84.2349 3134.99
67, 4: 1 3370.61 0 3219.23
68, 4: 0 3370.61 75.9298 3143.3
69, 4: 0 3370.61 55.7303 3163.5
70, 4: 0 3370.61 81.8883 3137.34
Customer 30 - Obj: 151.376   part1: 151.376   part2: 9.05186e-13
30, 5: 0 6816.69 6665.31
0, 5: 0 -
63, 5: 0 6816.69 1019.15 6665.31
64, 5: 0 6816.69 980.347 6665.31
65, 5: 0 6816.69 841.732 6665.31
66, 5: 0 6816.69 750.769 6249.21
67, 5: 1 6816.69 0 6665.31
68, 5: 0 6816.69 516.354 6249.21
69, 5: 0 6816.69 539.354 6249.21
70, 5: 0 6816.69 707.183 6249.21
Customer 31 - Obj: 151.376   part1: 151.376   part2: 0
31, 5: 0 6816.69 6665.31
0, 5: 0 -
63, 5: 0 6816.69 5894.01 6665.31
64, 5: 0 6816.69 5321.52 6665.31
65, 5: 0 6816.69 3341.73 6665.31
66, 5: 0 6816.69 2996.62 6665.31
67, 5: 1 6816.69 0 6665.31
68, 5: 0 6816.69 2107.36 6665.31
69, 5: 0 6816.69 2194.59 6665.31
70, 5: 0 6816.69 2831.27 6665.31
Customer 32 - Obj: 151.376   part1: 151.376   part2: 0
32, 5: 0 6816.69 6665.31
0, 5: 0 -
63, 5: 0 6816.69 1969.24 6665.31
64, 5: 0 6816.69 1778.58 6665.31
65, 5: 0 6816.69 1133.24 6665.31
66, 5: 0 6816.69 1018.3 6665.31
67, 5: 1 6816.69 0 6665.31
68, 5: 0 6816.69 722.13 6249.21
69, 5: 0 6816.69 751.182 6249.21
70, 5: 0 6816.69 963.229 6665.31
Customer 33 - Obj: 151.376   part1: 151.376   part2: 0
33, 5: 0 6816.69 6665.31
0, 5: 0 -
63, 5: 0 6816.69 3645.22 6665.31
64, 5: 0 6816.69 3514.72 6665.31
65, 5: 0 6816.69 3131.31 6665.31
66, 5: 0 6816.69 2948.94 6665.31
67, 5: 1 6816.69 0 6665.31
68, 5: 0 6816.69 1925.91 6665.31
69, 5: 0 6816.69 2643.57 6665.31
70, 5: 0 6816.69 3285.94 6665.31
Customer 34 - Obj: 151.376   part1: 151.376   part2: 0
34, 9: 0 772.666 621.29
0, 9: 0 -
63, 9: 0 772.666 5306.39 621.29
64, 9: 0 772.666 5120.81 621.29
65, 9: 0 772.666 4575.56 621.29
66, 9: 0 772.666 4316.21 621.29
67, 9: 1 772.666 0 621.29
68, 9: 0 772.666 2861.35 621.29
69, 9: 0 772.666 3881.94 621.29
70, 9: 0 772.666 4710.19 621.29
Customer 35 - Obj: -3383.42   part1: 151.376   part2: 3534.8
35, 8: 0 8678.31 8526.93
0, 8: 0 -
63, 8: 0 8678.31 2961.53 6389.57
64, 8: 0 8678.31 3064.46 6389.57
65, 8: 1 8678.31 3534.8 8526.93
66, 8: 0 8678.31 3897.35 6389.57
67, 8: 0 8678.31 0 8526.93
68, 8: 0 8678.31 4632.16 6389.57
69, 8: 0 8678.31 3562.16 6389.57
70, 8: 0 8678.31 2255.13 6389.57
Customer 36 - Obj: 151.376   part1: 151.376   part2: -1.11963e-12
36, 7: 0 4659.51 4508.14
0, 7: 0 -
63, 7: 0 4659.51 2521.18 4508.14
64, 7: 0 4659.51 2606.65 4508.14
65, 7: 0 4659.51 2997.11 4508.14
66, 7: 0 4659.51 3298.09 4508.14
67, 7: 1 4659.51 0 4508.14
68, 7: 0 4659.51 3548.92 4508.14
69, 7: 0 4659.51 2660.63 4508.14
70, 7: 0 4659.51 1646.28 3278.16
Customer 37 - Obj: 151.376   part1: 151.376   part2: 3.00228e-11
37, 7: 0 4659.51 4508.14
0, 7: 0 -
63, 7: 0 4659.51 13.2041 4958.95
64, 7: 0 4659.51 13.6328 4958.95
65, 7: 0 4659.51 15.5913 4958.95
66, 7: 0 4659.51 17.101 4958.95
67, 7: 1 4659.51 0 4508.14
68, 7: 0 4659.51 17.9855 4958.95
69, 7: 0 4659.51 13.53 4958.95
70, 7: 0 4659.51 9.04732 4499.09
Customer 38 - Obj: 151.376   part1: 151.376   part2: 0
38, 6: 0 2331.17 2179.8
0, 6: 0 -
63, 6: 0 2331.17 1009.28 2179.8
64, 6: 0 2331.17 1041.88 2179.8
65, 6: 0 2331.17 1190.81 2179.8
66, 6: 0 2331.17 1305.62 2179.8
67, 6: 1 2331.17 0 2179.8
68, 6: 0 2331.17 1335.96 2179.8
69, 6: 0 2331.17 997.132 2179.8
70, 6: 0 2331.17 656.239 2179.8
Customer 39 - Obj: 151.376   part1: 151.376   part2: 0
39, 3: 0 1132.6 981.225
0, 3: 0 -
63, 3: 0 1132.6 1238.37 981.225
64, 3: 0 1132.6 1078.12 981.225
65, 3: 0 1132.6 1216.59 981.225
66, 3: 0 1132.6 1252.72 981.225
67, 3: 1 1132.6 0 981.225
68, 3: 0 1132.6 1523.06 981.225
69, 3: 0 1132.6 1136.48 981.225
70, 3: 0 1132.6 747.535 981.225
Customer 40 - Obj: 151.376   part1: 151.376   part2: 0
40, 9: 0 772.666 621.29
0, 9: 0 -
63, 9: 0 772.666 68.9125 683.419
64, 9: 0 772.666 72.2457 683.419
65, 9: 0 772.666 84.9562 683.419
66, 9: 0 772.666 88.2738 683.419
67, 9: 1 772.666 0 621.29
68, 9: 0 772.666 113.089 683.419
69, 9: 0 772.666 77.6025 683.419
70, 9: 0 772.666 41.8986 683.419
Customer 41 - Obj: 151.376   part1: 151.376   part2: 3.02541e-11
41, 4: 0 3370.61 3219.23
0, 4: 0 -
63, 4: 0 3370.61 973.231 2246
64, 4: 0 3370.61 1018.73 3219.23
65, 4: 0 3370.61 1192.29 3219.23
66, 4: 0 3370.61 1237.59 3219.23
67, 4: 1 3370.61 0 3219.23
68, 4: 0 3370.61 1576.44 3219.23
69, 4: 0 3370.61 1091.88 3219.23
70, 4: 0 3370.61 604.353 3219.23
Customer 42 - Obj: 151.376   part1: 151.376   part2: -4.14358e-13
42, 2: 0 3291.48 3140.11
0, 2: 0 -
63, 2: 0 3291.48 1866.1 3140.11
64, 2: 0 3291.48 1546.37 3140.11
65, 2: 0 3291.48 1398.81 3140.11
66, 2: 0 3291.48 1246.63 3140.11
67, 2: 1 3291.48 0 3140.11
68, 2: 0 3291.48 1693.08 3140.11
69, 2: 0 3291.48 1002.98 3140.11
70, 2: 0 3291.48 1048.95 3140.11
Customer 43 - Obj: -3433.27   part1: 151.376   part2: 3584.64
43, 8: 0 8678.31 8526.93
0, 8: 0 -
63, 8: 0 8678.31 4972.2 9379.62
64, 8: 0 8678.31 3796.09 9379.62
65, 8: 1 8678.31 3584.64 8526.93
66, 8: 0 8678.31 2940.17 9379.62
67, 8: 0 8678.31 0 8526.93
68, 8: 0 8678.31 2998.43 9379.62
69, 8: 0 8678.31 2205.21 9379.62
70, 8: 0 8678.31 2859.14 9379.62
Customer 44 - Obj: 151.376   part1: 151.376   part2: 0
44, 1: 0 8355.3 8203.92
0, 1: 0 -
63, 1: 0 8355.3 7749.69 8203.92
64, 1: 0 8355.3 6778.03 8203.92
65, 1: 0 8355.3 5788.72 8203.92
66, 1: 0 8355.3 4749.02 8203.92
67, 1: 1 8355.3 0 8203.92
68, 1: 0 8355.3 4843 8203.92
69, 1: 0 8355.3 3563.37 8203.92
70, 1: 0 8355.3 5266.48 8203.92
Customer 45 - Obj: -152.239   part1: 151.376   part2: 303.615
45, 8: 0 8678.31 8526.93
0, 8: 0 -
63, 8: 0 8678.31 367.337 9379.62
64, 8: 0 8678.31 320.487 9379.62
65, 8: 1 8678.31 303.615 8526.93
66, 8: 0 8678.31 253.481 9379.62
67, 8: 0 8678.31 0 8526.93
68, 8: 0 8678.31 258.013 8526.93
69, 8: 0 8678.31 196.309 9379.62
70, 8: 0 8678.31 247.602 9379.62
Customer 46 - Obj: 151.376   part1: 151.376   part2: 1.52666e-11
46, 6: 0 2331.17 2179.8
0, 6: 0 -
63, 6: 0 2331.17 747.332 2179.8
64, 6: 0 2331.17 657.85 2179.8
65, 6: 0 2331.17 625.625 2179.8
66, 6: 0 2331.17 529.872 2179.8
67, 6: 1 2331.17 0 2179.8
68, 6: 0 2331.17 538.527 2179.8
69, 6: 0 2331.17 420.675 2179.8
70, 6: 0 2331.17 518.641 2179.8
Customer 47 - Obj: 151.376   part1: 151.376   part2: 1.27806e-12
47, 1: 0 8355.3 8203.92
0, 1: 0 -
63, 1: 0 8355.3 2877.93 5561.73
64, 1: 0 8355.3 2510.21 5693.71
65, 1: 0 8355.3 2377.79 5826.13
66, 1: 0 8355.3 1984.31 6219.61
67, 1: 1 8355.3 0 8203.92
68, 1: 0 8355.3 2019.88 6184.04
69, 1: 0 8355.3 1535.58 6668.34
70, 1: 0 8355.3 1938.16 6265.76
Customer 48 - Obj: 151.376   part1: 151.376   part2: 0
48, 0: 0 6331.72 6180.34
0, 0: 0 -
63, 0: 0 6331.72 375.873 6798.38
64, 0: 0 6331.72 327.321 6798.38
65, 0: 0 6331.72 309.837 6798.38
66, 0: 0 6331.72 257.885 6798.38
67, 0: 1 6331.72 0 6180.34
68, 0: 0 6331.72 262.581 6798.38
69, 0: 0 6331.72 198.641 6798.38
70, 0: 0 6331.72 251.792 6798.38
Customer 49 - Obj: 151.376   part1: 151.376   part2: 2.99585e-11
49, 4: 0 3370.61 3219.23
0, 4: 0 -
63, 4: 0 3370.61 674.605 3541.15
64, 4: 0 3370.61 587.928 3541.15
65, 4: 0 3370.61 556.714 3541.15
66, 4: 0 3370.61 463.966 3541.15
67, 4: 1 3370.61 0 3219.23
68, 4: 0 3370.61 472.35 3541.15
69, 4: 0 3370.61 358.196 3541.15
70, 4: 0 3370.61 453.088 3541.15
Customer 50 - Obj: 151.376   part1: 151.376   part2: 0
50, 0: 0 6331.72 6180.34
0, 0: 0 -
63, 0: 0 6331.72 2322.9 6180.34
64, 0: 0 6331.72 2030.68 4753.11
65, 0: 0 6331.72 1925.45 4753.11
66, 0: 0 6331.72 1612.76 4753.11
67, 0: 1 6331.72 0 6180.34
68, 0: 0 6331.72 1641.01 4753.11
69, 0: 0 6331.72 1256.16 4924.18
70, 0: 0 6331.72 1576.07 4753.11
Customer 51 - Obj: 151.376   part1: 151.376   part2: 0
51, 1: 0 8355.3 8203.92
0, 1: 0 -
63, 1: 0 8355.3 503.47 9024.31
64, 1: 0 8355.3 440.009 9024.31
65, 1: 0 8355.3 417.155 9024.31
66, 1: 0 8355.3 349.248 9024.31
67, 1: 1 8355.3 0 8203.92
68, 1: 0 8355.3 355.386 9024.31
69, 1: 0 8355.3 271.805 9024.31
70, 1: 0 8355.3 341.283 9024.31
Customer 52 - Obj: 151.376   part1: 151.376   part2: 0
52, 5: 0 6816.69 6665.31
0, 5: 0 -
63, 5: 0 6816.69 4208.71 6665.31
64, 5: 0 6816.69 3687.95 6665.31
65, 5: 0 6816.69 3500.41 6665.31
66, 5: 0 6816.69 2943.16 6665.31
67, 5: 1 6816.69 0 6665.31
68, 5: 0 6816.69 2993.51 6665.31
69, 5: 0 6816.69 2307.67 6665.31
70, 5: 0 6816.69 2877.78 6665.31
Customer 53 - Obj: 151.376   part1: 151.376   part2: 0
53, 9: 0 772.666 621.29
0, 9: 0 -
63, 9: 0 772.666 8687.47 621.29
64, 9: 0 772.666 8023.05 621.29
65, 9: 0 772.666 7026.5 621.29
66, 9: 0 772.666 6639.28 621.29
67, 9: 1 772.666 0 621.29
68, 9: 0 772.666 4662.07 621.29
69, 9: 0 772.666 6380.02 621.29
70, 9: 0 772.666 6989.45 621.29
Customer 54 - Obj: 151.376   part1: 151.376   part2: 2.9945e-11
54, 4: 0 3370.61 3219.23
0, 4: 0 -
63, 4: 0 3370.61 112.384 3541.15
64, 4: 0 3370.61 100.681 3541.15
65, 4: 0 3370.61 96.4669 3541.15
66, 4: 0 3370.61 83.9445 3541.15
67, 4: 1 3370.61 0 3219.23
68, 4: 0 3370.61 85.0764 3541.15
69, 4: 0 3370.61 69.6638 3541.15
70, 4: 0 3370.61 82.4753 3541.15
Customer 55 - Obj: -1960.79   part1: 151.376   part2: 2112.17
55, 8: 0 8678.31 8526.93
0, 8: 0 -
63, 8: 0 8678.31 2465.62 9379.62
64, 8: 0 8678.31 2205.75 9379.62
65, 8: 1 8678.31 2112.17 8526.93
66, 8: 0 8678.31 1834.09 9379.62
67, 8: 0 8678.31 0 9379.62
68, 8: 0 8678.31 1859.22 9379.62
69, 8: 0 8678.31 1516.96 9379.62
70, 8: 0 8678.31 1801.47 9379.62
Customer 56 - Obj: 151.376   part1: 151.376   part2: 0
56, 9: 0 772.666 621.29
0, 9: 0 -
63, 9: 0 772.666 5402.07 621.29
64, 9: 0 772.666 4857.4 621.29
65, 9: 0 772.666 5212.3 621.29
66, 9: 0 772.666 4080.33 621.29
67, 9: 1 772.666 0 621.29
68, 9: 0 772.666 4133.01 621.29
69, 9: 0 772.666 3415.66 621.29
70, 9: 0 772.666 4010.05 621.29
Customer 57 - Obj: -11880.5   part1: 151.376   part2: 12031.9
57, 8: 0 8678.31 8526.93
0, 8: 0 -
63, 8: 0 8678.31 12471.6 9379.62
64, 8: 0 8678.31 11209.5 9379.62
65, 8: 1 8678.31 12031.9 8526.93
66, 8: 0 8678.31 9689.04 9379.62
67, 8: 0 8678.31 0 6389.57
68, 8: 0 8678.31 9811.13 9379.62
69, 8: 0 8678.31 8148.85 9379.62
70, 8: 0 8678.31 9245.91 9379.62
Customer 58 - Obj: 151.376   part1: 151.376   part2: -2.79448e-13
58, 6: 0 2331.17 2179.8
0, 6: 0 -
63, 6: 0 2331.17 1258.52 2179.8
64, 6: 0 2331.17 1149 2179.8
65, 6: 0 2331.17 1129 2179.8
66, 6: 0 2331.17 1011.81 2179.8
67, 6: 1 2331.17 0 2179.8
68, 6: 0 2331.17 940.486 2179.8
69, 6: 0 2331.17 878.173 2179.8
70, 6: 0 2331.17 978.629 2179.8
Customer 59 - Obj: 151.376   part1: 151.376   part2: 0
59, 4: 0 3370.61 3219.23
0, 4: 0 -
63, 4: 0 3370.61 745.393 3541.15
64, 4: 0 3370.61 682.107 3541.15
65, 4: 0 3370.61 670.548 3541.15
66, 4: 0 3370.61 602.827 3541.15
67, 4: 1 3370.61 0 3219.23
68, 4: 0 3370.61 561.609 3541.15
69, 4: 0 3370.61 525.597 3541.15
70, 4: 0 3370.61 583.651 3541.15
Customer 60 - Obj: 151.376   part1: 151.376   part2: 0
60, 5: 0 6816.69 6665.31
0, 5: 0 -
63, 5: 0 6816.69 7929.21 6665.31
64, 5: 0 6816.69 7214.09 6665.31
65, 5: 0 6816.69 6825.75 6665.31
66, 5: 0 6816.69 6060.55 6665.31
67, 5: 1 6816.69 0 6665.31
68, 5: 0 6816.69 6129.72 6665.31
69, 5: 0 6816.69 5187.91 6665.31
70, 5: 0 6816.69 6101.62 6665.31
Customer 61 - Obj: 151.376   part1: 151.376   part2: 0
61, 2: 0 3291.48 3140.11
0, 2: 0 -
63, 2: 0 3291.48 9515.4 3140.11
64, 2: 0 3291.48 8695.85 3140.11
65, 2: 0 3291.48 8252.35 3140.11
66, 2: 0 3291.48 7375.38 3140.11
67, 2: 1 3291.48 0 3140.11
68, 2: 0 3291.48 7454.65 3140.11
69, 2: 0 3291.48 6375.26 3140.11
70, 2: 0 3291.48 7420.87 3140.11
Customer 62 - Obj: 151.376   part1: 151.376   part2: 2.97609e-11
62, 4: 0 3370.61 3219.23
0, 4: 0 -
63, 4: 0 3370.61 881.783 2337.45
64, 4: 0 3370.61 806.598 2412.63
65, 4: 0 3370.61 773.112 2446.12
66, 4: 0 3370.61 692.659 3541.15
67, 4: 1 3370.61 0 3219.23
68, 4: 0 3370.61 699.931 3541.15
69, 4: 0 3370.61 600.917 3541.15
70, 4: 0 3370.61 689.637 3541.15
Routing:
4, 0, 0
10, 0, 1
65, 0, 1
65, 10, 1
67, 0, 0
67, 4, 0
Routing cost: 1942.06
[285252.6939542584, 1942.060000000179, 5.700444459915161, 0.0, 1, -8.905089998734184e-10, 1.0, 1.0, 1.0]
